NAME: cities_5_15
TYPE: TSP
COMMENT: Generated from CSV
DIMENSION: 5
EDGE_WEIGHT_TYPE: EUC_2D
NODE_COORD_SECTION
1 48.224784124226325 38.24659190008018
2 61.45585498581095 6.570300549899322
3 57.44491694383909 99.41123911249096
4 71.03864520843594 51.030465896848845
5 30.632298664892875 16.95448843735535
EOF
